Traveling Salesman Problem/TSP_generados/Aleatorio1620391957_16.tsp
NAME: Aleatorio1620391957_16.tsp
COMMENT: Randomly generated scenario
TYPE: TSP
DIMENSION: 16
EDGE_WEIGHT_TYPE: ATT
NODE_COORD_SECTION
1 47.36 22.92
2 10.81 19.37
3 8.58 8.1
4 46.23 49.9
5 45.64 13.99
6 31.64 19.49
7 2.97 17.48
8 15.21 17.77
9 28.63 24.92
10 31.75 27.47
11 35.8 16.5
12 33.67 0.53
13 46.09 11.97
14 43.26 28.0
15 8.56 40.33
16 42.61 8.12
