Traveling Salesman Problem/TSP_generados/Aleatorio1620391957_16.opt.tour
NAME: Aleatorio1620391957_16.opt.tour
COMMENT: Optimal solution for Aleatorio1620391957_16 (194.65040019389087)
TYPE: TOUR
DIMENSION: 16
TOUR_SECTION
1 5 13 16 12 11 6 10 9 8 2 3 7 15 4 14
-1
EOF
